p cnf 841 1284
43 169 174 201 202 0
43 169 174 201 -202 0
43 169 174 -201 202 0
43 169 174 -201 -202 0
61 -169 172 203 204 0
61 -169 172 203 -204 0
61 -169 172 -203 204 0
61 -169 172 -203 -204 0
-61 70 118 205 206 0
-61 70 118 205 -206 0
-61 70 118 -205 206 0
-61 70 118 -205 -206 0
-70 97 172 207 208 0
-70 97 172 207 -208 0
-70 97 172 -207 208 0
-70 97 172 -207 -208 0
-61 -70 -97 209 210 0
-61 -70 -97 209 -210 0
-61 -70 -97 -209 210 0
-61 -70 -97 -209 -210 0
43 -169 172 211 212 0
43 -169 172 211 -212 0
43 -169 172 -211 212 0
43 -169 172 -211 -212 0
68 144 -169 213 214 0
68 144 -169 213 -214 0
68 144 -169 -213 214 0
68 144 -169 -213 -214 0
48 135 144 215 216 0
48 135 144 215 -216 0
48 135 144 -215 216 0
48 135 144 -215 -216 0
48 -68 -135 217 218 0
48 -68 -135 217 -218 0
48 -68 -135 -217 218 0
48 -68 -135 -217 -218 0
-48 -68 -172 219 220 0
-48 -68 -172 219 -220 0
-48 -68 -172 -219 220 0
-48 -68 -172 -219 -220 0
123 130 138 221 222 0
123 130 138 221 -222 0
123 130 138 -221 222 0
123 130 138 -221 -222 0
-123 130 -144 223 224 0
-123 130 -144 223 -224 0
-123 130 -144 -223 224 0
-123 130 -144 -223 -224 0
-130 138 -172 225 226 0
-130 138 -172 225 -226 0
-130 138 -172 -225 226 0
-130 138 -172 -225 -226 0
-138 -172 175 227 228 0
-138 -172 175 227 -228 0
-138 -172 175 -227 228 0
-138 -172 175 -227 -228 0
-172 174 -175 229 230 0
-172 174 -175 229 -230 0
-172 174 -175 -229 230 0
-172 174 -175 -229 -230 0
87 161 -174 231 232 0
87 161 -174 231 -232 0
87 161 -174 -231 232 0
87 161 -174 -231 -232 0
3 74 -87 233 234 0
3 74 -87 233 -234 0
3 74 -87 -233 234 0
3 74 -87 -233 -234 0
-3 74 -87 235 236 0
-3 74 -87 235 -236 0
-3 74 -87 -235 236 0
-3 74 -87 -235 -236 0
-74 -87 159 237 238 0
-74 -87 159 237 -238 0
-74 -87 159 -237 238 0
-74 -87 159 -237 -238 0
124 -159 -174 239 240 0
124 -159 -174 239 -240 0
124 -159 -174 -239 240 0
124 -159 -174 -239 -240 0
-74 -124 -159 241 242 0
-74 -124 -159 241 -242 0
-74 -124 -159 -241 242 0
-74 -124 -159 -241 -242 0
6 -43 161 243 244 0
6 -43 161 243 -244 0
6 -43 161 -243 244 0
6 -43 161 -243 -244 0
-6 -43 161 245 246 0
-6 -43 161 245 -246 0
-6 -43 161 -245 246 0
-6 -43 161 -245 -246 0
14 110 -161 247 248 0
14 110 -161 247 -248 0
14 110 -161 -247 248 0
14 110 -161 -247 -248 0
173 189 190 249 250 0
173 189 190 249 -250 0
173 189 190 -249 250 0
173 189 190 -249 -250 0
122 132 190 251 252 0
122 132 190 251 -252 0
122 132 190 -251 252 0
122 132 190 -251 -252 0
122 -132 189 253 254 0
122 -132 189 253 -254 0
122 -132 189 -253 254 0
122 -132 189 -253 -254 0
121 -122 -173 255 256 0
121 -122 -173 255 -256 0
121 -122 -173 -255 256 0
121 -122 -173 -255 -256 0
-110 -122 -173 257 258 0
-110 -122 -173 257 -258 0
-110 -122 -173 -257 258 0
-110 -122 -173 -257 -258 0
14 189 -190 259 260 0
14 189 -190 259 -260 0
14 189 -190 -259 260 0
14 189 -190 -259 -260 0
14 -110 -189 261 262 0
14 -110 -189 261 -262 0
14 -110 -189 -261 262 0
14 -110 -189 -261 -262 0
66 102 115 263 264 0
66 102 115 263 -264 0
66 102 115 -263 264 0
66 102 115 -263 -264 0
66 -102 163 265 266 0
66 -102 163 265 -266 0
66 -102 163 -265 266 0
66 -102 163 -265 -266 0
66 -102 -163 267 268 0
66 -102 -163 267 -268 0
66 -102 -163 -267 268 0
66 -102 -163 -267 -268 0
-66 146 192 269 270 0
-66 146 192 269 -270 0
-66 146 192 -269 270 0
-66 146 192 -269 -270 0
115 141 -146 271 272 0
115 141 -146 271 -272 0
115 141 -146 -271 272 0
115 141 -146 -271 -272 0
-66 -141 -146 273 274 0
-66 -141 -146 273 -274 0
-66 -141 -146 -273 274 0
-66 -141 -146 -273 -274 0
-115 188 192 275 276 0
-115 188 192 275 -276 0
-115 188 192 -275 276 0
-115 188 192 -275 -276 0
-115 -188 192 277 278 0
-115 -188 192 277 -278 0
-115 -188 192 -277 278 0
-115 -188 192 -277 -278 0
87 149 -192 279 280 0
87 149 -192 279 -280 0
87 149 -192 -279 280 0
87 149 -192 -279 -280 0
8 -149 -192 281 282 0
8 -149 -192 281 -282 0
8 -149 -192 -281 282 0
8 -149 -192 -281 -282 0
6 58 180 283 284 0
6 58 180 283 -284 0
6 58 180 -283 284 0
6 58 180 -283 -284 0
-6 -14 58 285 286 0
-6 -14 58 285 -286 0
-6 -14 58 -285 286 0
-6 -14 58 -285 -286 0
28 38 116 287 288 0
28 38 116 287 -288 0
28 38 116 -287 288 0
28 38 116 -287 -288 0
28 -38 116 289 290 0
28 -38 116 289 -290 0
28 -38 116 -289 290 0
28 -38 116 -289 -290 0
35 -116 118 291 292 0
35 -116 118 291 -292 0
35 -116 118 -291 292 0
35 -116 118 -291 -292 0
-35 57 118 293 294 0
-35 57 118 293 -294 0
-35 57 118 -293 294 0
-35 57 118 -293 -294 0
-35 -57 180 295 296 0
-35 -57 180 295 -296 0
-35 -57 180 -295 296 0
-35 -57 180 -295 -296 0
49 -116 -118 297 298 0
49 -116 -118 297 -298 0
49 -116 -118 -297 298 0
49 -116 -118 -297 -298 0
-49 155 179 299 300 0
-49 155 179 299 -300 0
-49 155 179 -299 300 0
-49 155 179 -299 -300 0
-49 -118 -155 301 302 0
-49 -118 -155 301 -302 0
-49 -118 -155 -301 302 0
-49 -118 -155 -301 -302 0
-49 -116 -179 303 304 0
-49 -116 -179 303 -304 0
-49 -116 -179 -303 304 0
-49 -116 -179 -303 -304 0
95 107 169 305 306 0
95 107 169 305 -306 0
95 107 169 -305 306 0
95 107 169 -305 -306 0
25 95 -107 307 308 0
25 95 -107 307 -308 0
25 95 -107 -307 308 0
25 95 -107 -307 -308 0
-25 -58 -107 309 310 0
-25 -58 -107 309 -310 0
-25 -58 -107 -309 310 0
-25 -58 -107 -309 -310 0
-28 95 -169 311 312 0
-28 95 -169 311 -312 0
-28 95 -169 -311 312 0
-28 95 -169 -311 -312 0
27 -28 -58 313 314 0
27 -28 -58 313 -314 0
27 -28 -58 -313 314 0
27 -28 -58 -313 -314 0
-27 -28 -95 315 316 0
-27 -28 -95 315 -316 0
-27 -28 -95 -315 316 0
-27 -28 -95 -315 -316 0
8 -14 -180 317 318 0
8 -14 -180 317 -318 0
8 -14 -180 -317 318 0
8 -14 -180 -317 -318 0
16 51 120 319 320 0
16 51 120 319 -320 0
16 51 120 -319 320 0
16 51 120 -319 -320 0
-51 120 143 321 322 0
-51 120 143 321 -322 0
-51 120 143 -321 322 0
-51 120 143 -321 -322 0
79 -120 143 323 324 0
79 -120 143 323 -324 0
79 -120 143 -323 324 0
79 -120 143 -323 -324 0
93 129 -143 325 326 0
93 129 -143 325 -326 0
93 129 -143 -325 326 0
93 129 -143 -325 -326 0
79 93 -129 327 328 0
79 93 -129 327 -328 0
79 93 -129 -327 328 0
79 93 -129 -327 -328 0
16 -93 -161 329 330 0
16 -93 -161 329 -330 0
16 -93 -161 -329 330 0
16 -93 -161 -329 -330 0
-16 79 188 331 332 0
-16 79 188 331 -332 0
-16 79 188 -331 332 0
-16 79 188 -331 -332 0
-16 79 -188 333 334 0
-16 79 -188 333 -334 0
-16 79 -188 -333 334 0
-16 79 -188 -333 -334 0
39 60 -79 335 336 0
39 60 -79 335 -336 0
39 60 -79 -335 336 0
39 60 -79 -335 -336 0
-8 -39 60 337 338 0
-8 -39 60 337 -338 0
-8 -39 60 -337 338 0
-8 -39 60 -337 -338 0
-8 -60 -79 339 340 0
-8 -60 -79 339 -340 0
-8 -60 -79 -339 340 0
-8 -60 -79 -339 -340 0
5 42 162 341 342 0
5 42 162 341 -342 0
5 42 162 -341 342 0
5 42 162 -341 -342 0
5 42 -162 343 344 0
5 42 -162 343 -344 0
5 42 -162 -343 344 0
5 42 -162 -343 -344 0
100 104 -126 345 346 0
100 104 -126 345 -346 0
100 104 -126 -345 346 0
100 104 -126 -345 -346 0
-104 -126 -167 347 348 0
-104 -126 -167 347 -348 0
-104 -126 -167 -347 348 0
-104 -126 -167 -347 -348 0
13 53 -100 349 350 0
13 53 -100 349 -350 0
13 53 -100 -349 350 0
13 53 -100 -349 -350 0
-33 53 -100 351 352 0
-33 53 -100 351 -352 0
-33 53 -100 -351 352 0
-33 53 -100 -351 -352 0
-53 96 -167 353 354 0
-53 96 -167 353 -354 0
-53 96 -167 -353 354 0
-53 96 -167 -353 -354 0
13 -96 166 355 356 0
13 -96 166 355 -356 0
13 -96 166 -355 356 0
13 -96 166 -355 -356 0
-96 -100 -166 357 358 0
-96 -100 -166 357 -358 0
-96 -100 -166 -357 358 0
-96 -100 -166 -357 -358 0
12 104 107 359 360 0
12 104 107 359 -360 0
12 104 107 -359 360 0
12 104 107 -359 -360 0
12 -104 159 361 362 0
12 -104 159 361 -362 0
12 -104 159 -361 362 0
12 -104 159 -361 -362 0
-56 -138 -190 363 364 0
-56 -138 -190 363 -364 0
-56 -138 -190 -363 364 0
-56 -138 -190 -363 -364 0
38 151 177 365 366 0
38 151 177 365 -366 0
38 151 177 -365 366 0
38 151 177 -365 -366 0
-29 -38 177 367 368 0
-29 -38 177 367 -368 0
-29 -38 177 -367 368 0
-29 -38 177 -367 -368 0
109 -151 177 369 370 0
109 -151 177 369 -370 0
109 -151 177 -369 370 0
109 -151 177 -369 -370 0
-45 -91 175 371 372 0
-45 -91 175 371 -372 0
-45 -91 175 -371 372 0
-45 -91 175 -371 -372 0
21 -121 -129 373 374 0
21 -121 -129 373 -374 0
21 -121 -129 -373 374 0
21 -121 -129 -373 -374 0
-21 83 165 375 376 0
-21 83 165 375 -376 0
-21 83 165 -375 376 0
-21 83 165 -375 -376 0
-21 -83 165 377 378 0
-21 -83 165 377 -378 0
-21 -83 165 -377 378 0
-21 -83 165 -377 -378 0
-121 -143 165 379 380 0
-121 -143 165 379 -380 0
-121 -143 165 -379 380 0
-121 -143 165 -379 -380 0
65 -176 -178 381 382 0
65 -176 -178 381 -382 0
65 -176 -178 -381 382 0
65 -176 -178 -381 -382 0
75 -93 145 383 384 0
75 -93 145 383 -384 0
75 -93 145 -383 384 0
75 -93 145 -383 -384 0
75 76 -145 385 386 0
75 76 -145 385 -386 0
75 76 -145 -385 386 0
75 76 -145 -385 -386 0
109 119 -188 387 388 0
109 119 -188 387 -388 0
109 119 -188 -387 388 0
109 119 -188 -387 -388 0
-82 109 -119 389 390 0
-82 109 -119 389 -390 0
-82 109 -119 -389 390 0
-82 109 -119 -389 -390 0
3 -65 -148 391 392 0
3 -65 -148 391 -392 0
3 -65 -148 -391 392 0
3 -65 -148 -391 -392 0
-3 -65 -148 393 394 0
-3 -65 -148 393 -394 0
-3 -65 -148 -393 394 0
-3 -65 -148 -393 -394 0
19 108 121 395 396 0
19 108 121 395 -396 0
19 108 121 -395 396 0
19 108 121 -395 -396 0
19 -108 121 397 398 0
19 -108 121 397 -398 0
19 -108 121 -397 398 0
19 -108 121 -397 -398 0
45 -47 -106 399 400 0
45 -47 -106 399 -400 0
45 -47 -106 -399 400 0
45 -47 -106 -399 -400 0
100 -140 193 401 402 0
100 -140 193 401 -402 0
100 -140 193 -401 402 0
100 -140 193 -401 -402 0
29 -52 78 403 404 0
29 -52 78 403 -404 0
29 -52 78 -403 404 0
29 -52 78 -403 -404 0
-29 -52 101 405 406 0
-29 -52 101 405 -406 0
-29 -52 101 -405 406 0
-29 -52 101 -405 -406 0
55 78 -119 407 408 0
55 78 -119 407 -408 0
55 78 -119 -407 408 0
55 78 -119 -407 -408 0
55 78 151 409 410 0
55 78 151 409 -410 0
55 78 151 -409 410 0
55 78 151 -409 -410 0
55 -79 -151 411 412 0
55 -79 -151 411 -412 0
55 -79 -151 -411 412 0
55 -79 -151 -411 -412 0
-55 78 141 413 414 0
-55 78 141 413 -414 0
-55 78 141 -413 414 0
-55 78 141 -413 -414 0
-55 -141 197 415 416 0
-55 -141 197 415 -416 0
-55 -141 197 -415 416 0
-55 -141 197 -415 -416 0
-108 -138 158 417 418 0
-108 -138 158 417 -418 0
-108 -138 158 -417 418 0
-108 -138 158 -417 -418 0
-12 83 113 419 420 0
-12 83 113 419 -420 0
-12 83 113 -419 420 0
-12 83 113 -419 -420 0
-12 -113 -195 421 422 0
-12 -113 -195 421 -422 0
-12 -113 -195 -421 422 0
-12 -113 -195 -421 -422 0
-39 81 200 423 424 0
-39 81 200 423 -424 0
-39 81 200 -423 424 0
-39 81 200 -423 -424 0
50 56 -180 425 426 0
50 56 -180 425 -426 0
50 56 -180 -425 426 0
50 56 -180 -425 -426 0
-31 -50 56 427 428 0
-31 -50 56 427 -428 0
-31 -50 56 -427 428 0
-31 -50 56 -427 -428 0
38 44 -56 429 430 0
38 44 -56 429 -430 0
38 44 -56 -429 430 0
38 44 -56 -429 -430 0
44 -56 -180 431 432 0
44 -56 -180 431 -432 0
44 -56 -180 -431 432 0
44 -56 -180 -431 -432 0
-54 119 -158 433 434 0
-54 119 -158 433 -434 0
-54 119 -158 -433 434 0
-54 119 -158 -433 -434 0
-140 160 183 435 436 0
-140 160 183 435 -436 0
-140 160 183 -435 436 0
-140 160 183 -435 -436 0
160 173 -183 437 438 0
160 173 -183 437 -438 0
160 173 -183 -437 438 0
160 173 -183 -437 -438 0
7 -13 -99 439 440 0
7 -13 -99 439 -440 0
7 -13 -99 -439 440 0
7 -13 -99 -439 -440 0
-13 -99 -163 441 442 0
-13 -99 -163 441 -442 0
-13 -99 -163 -441 442 0
-13 -99 -163 -441 -442 0
-19 69 -193 443 444 0
-19 69 -193 443 -444 0
-19 69 -193 -443 444 0
-19 69 -193 -443 -444 0
-19 81 -193 445 446 0
-19 81 -193 445 -446 0
-19 81 -193 -445 446 0
-19 81 -193 -445 -446 0
-13 -97 -185 447 448 0
-13 -97 -185 447 -448 0
-13 -97 -185 -447 448 0
-13 -97 -185 -447 -448 0
-88 -107 -187 449 450 0
-88 -107 -187 449 -450 0
-88 -107 -187 -449 450 0
-88 -107 -187 -449 -450 0
-150 -156 183 451 452 0
-150 -156 183 451 -452 0
-150 -156 183 -451 452 0
-150 -156 183 -451 -452 0
31 -109 175 453 454 0
31 -109 175 453 -454 0
31 -109 175 -453 454 0
31 -109 175 -453 -454 0
31 -109 110 455 456 0
31 -109 110 455 -456 0
31 -109 110 -455 456 0
31 -109 110 -455 -456 0
106 125 -155 457 458 0
106 125 -155 457 -458 0
106 125 -155 -457 458 0
106 125 -155 -457 -458 0
9 -114 186 459 460 0
9 -114 186 459 -460 0
9 -114 186 -459 460 0
9 -114 186 -459 -460 0
22 35 194 461 462 0
22 35 194 461 -462 0
22 35 194 -461 462 0
22 35 194 -461 -462 0
22 158 -194 463 464 0
22 158 -194 463 -464 0
22 158 -194 -463 464 0
22 158 -194 -463 -464 0
-103 -173 198 465 466 0
-103 -173 198 465 -466 0
-103 -173 198 -465 466 0
-103 -173 198 -465 -466 0
-39 -103 -198 467 468 0
-39 -103 -198 467 -468 0
-39 -103 -198 -467 468 0
-39 -103 -198 -467 -468 0
20 -66 71 469 470 0
20 -66 71 469 -470 0
20 -66 71 -469 470 0
20 -66 71 -469 -470 0
-60 -66 -71 471 472 0
-60 -66 -71 471 -472 0
-60 -66 -71 -471 472 0
-60 -66 -71 -471 -472 0
127 163 197 473 474 0
127 163 197 473 -474 0
127 163 197 -473 474 0
127 163 197 -473 -474 0
88 -175 184 475 476 0
88 -175 184 475 -476 0
88 -175 184 -475 476 0
88 -175 184 -475 -476 0
-71 129 -152 477 478 0
-71 129 -152 477 -478 0
-71 129 -152 -477 478 0
-71 129 -152 -477 -478 0
9 24 62 479 480 0
9 24 62 479 -480 0
9 24 62 -479 480 0
9 24 62 -479 -480 0
-9 24 62 481 482 0
-9 24 62 481 -482 0
-9 24 62 -481 482 0
-9 24 62 -481 -482 0
35 -114 162 483 484 0
35 -114 162 483 -484 0
35 -114 162 -483 484 0
35 -114 162 -483 -484 0
20 -171 -179 485 486 0
20 -171 -179 485 -486 0
20 -171 -179 -485 486 0
20 -171 -179 -485 -486 0
90 134 -177 487 488 0
90 134 -177 487 -488 0
90 134 -177 -487 488 0
90 134 -177 -487 -488 0
-85 -145 -153 489 490 0
-85 -145 -153 489 -490 0
-85 -145 -153 -489 490 0
-85 -145 -153 -489 -490 0
-9 -122 -186 491 492 0
-9 -122 -186 491 -492 0
-9 -122 -186 -491 492 0
-9 -122 -186 -491 -492 0
102 -139 166 493 494 0
102 -139 166 493 -494 0
102 -139 166 -493 494 0
102 -139 166 -493 -494 0
-125 184 -199 495 496 0
-125 184 -199 495 -496 0
-125 184 -199 -495 496 0
-125 184 -199 -495 -496 0
-119 -141 198 497 498 0
-119 -141 198 497 -498 0
-119 -141 198 -497 498 0
-119 -141 198 -497 -498 0
97 -141 -198 499 500 0
97 -141 -198 499 -500 0
97 -141 -198 -499 500 0
97 -141 -198 -499 -500 0
27 33 -47 501 502 0
27 33 -47 501 -502 0
27 33 -47 -501 502 0
27 33 -47 -501 -502 0
-27 33 -114 503 504 0
-27 33 -114 503 -504 0
-27 33 -114 -503 504 0
-27 33 -114 -503 -504 0
10 30 67 505 506 0
10 30 67 505 -506 0
10 30 67 -505 506 0
10 30 67 -505 -506 0
-26 -77 -106 507 508 0
-26 -77 -106 507 -508 0
-26 -77 -106 -507 508 0
-26 -77 -106 -507 -508 0
32 105 -189 509 510 0
32 105 -189 509 -510 0
32 105 -189 -509 510 0
32 105 -189 -509 -510 0
30 72 -157 511 512 0
30 72 -157 511 -512 0
30 72 -157 -511 512 0
30 72 -157 -511 -512 0
131 138 147 513 514 0
131 138 147 513 -514 0
131 138 147 -513 514 0
131 138 147 -513 -514 0
89 124 -157 515 516 0
89 124 -157 515 -516 0
89 124 -157 -515 516 0
89 124 -157 -515 -516 0
89 -124 -157 517 518 0
89 -124 -157 517 -518 0
89 -124 -157 -517 518 0
89 -124 -157 -517 -518 0
7 -78 91 519 520 0
7 -78 91 519 -520 0
7 -78 91 -519 520 0
7 -78 91 -519 -520 0
54 -85 125 521 522 0
54 -85 125 521 -522 0
54 -85 125 -521 522 0
54 -85 125 -521 -522 0
23 54 -125 523 524 0
23 54 -125 523 -524 0
23 54 -125 -523 524 0
23 54 -125 -523 -524 0
-69 171 -187 525 526 0
-69 171 -187 525 -526 0
-69 171 -187 -525 526 0
-69 171 -187 -525 -526 0
-50 -69 -187 527 528 0
-50 -69 -187 527 -528 0
-50 -69 -187 -527 528 0
-50 -69 -187 -527 -528 0
-4 23 -156 529 530 0
-4 23 -156 529 -530 0
-4 23 -156 -529 530 0
-4 23 -156 -529 -530 0
1 -44 -181 531 532 0
1 -44 -181 531 -532 0
1 -44 -181 -531 532 0
1 -44 -181 -531 -532 0
59 76 137 533 534 0
59 76 137 533 -534 0
59 76 137 -533 534 0
59 76 137 -533 -534 0
59 -76 -166 535 536 0
59 -76 -166 535 -536 0
59 -76 -166 -535 536 0
59 -76 -166 -535 -536 0
-88 117 126 537 538 0
-88 117 126 537 -538 0
-88 117 126 -537 538 0
-88 117 126 -537 -538 0
-117 126 135 539 540 0
-117 126 135 539 -540 0
-117 126 135 -539 540 0
-117 126 135 -539 -540 0
29 -42 -77 541 542 0
29 -42 -77 541 -542 0
29 -42 -77 -541 542 0
29 -42 -77 -541 -542 0
11 -29 -42 543 544 0
11 -29 -42 543 -544 0
11 -29 -42 -543 544 0
11 -29 -42 -543 -544 0
-59 128 163 545 546 0
-59 128 163 545 -546 0
-59 128 163 -545 546 0
-59 128 163 -545 -546 0
57 -97 -185 547 548 0
57 -97 -185 547 -548 0
57 -97 -185 -547 548 0
57 -97 -185 -547 -548 0
73 -84 103 549 550 0
73 -84 103 549 -550 0
73 -84 103 -549 550 0
73 -84 103 -549 -550 0
2 -22 -149 551 552 0
2 -22 -149 551 -552 0
2 -22 -149 -551 552 0
2 -22 -149 -551 -552 0
-9 132 149 553 554 0
-9 132 149 553 -554 0
-9 132 149 -553 554 0
-9 132 149 -553 -554 0
80 -82 -200 555 556 0
80 -82 -200 555 -556 0
80 -82 -200 -555 556 0
80 -82 -200 -555 -556 0
-65 92 -183 557 558 0
-65 92 -183 557 -558 0
-65 92 -183 -557 558 0
-65 92 -183 -557 -558 0
47 92 -197 559 560 0
47 92 -197 559 -560 0
47 92 -197 -559 560 0
47 92 -197 -559 -560 0
-92 -146 195 561 562 0
-92 -146 195 561 -562 0
-92 -146 195 -561 562 0
-92 -146 195 -561 -562 0
-48 71 -196 563 564 0
-48 71 -196 563 -564 0
-48 71 -196 -563 564 0
-48 71 -196 -563 -564 0
-48 -64 178 565 566 0
-48 -64 178 565 -566 0
-48 -64 178 -565 566 0
-48 -64 178 -565 -566 0
-117 -158 -168 567 568 0
-117 -158 -168 567 -568 0
-117 -158 -168 -567 568 0
-117 -158 -168 -567 -568 0
77 -147 193 569 570 0
77 -147 193 569 -570 0
77 -147 193 -569 570 0
77 -147 193 -569 -570 0
-59 62 139 571 572 0
-59 62 139 571 -572 0
-59 62 139 -571 572 0
-59 62 139 -571 -572 0
11 38 -76 573 574 0
11 38 -76 573 -574 0
11 38 -76 -573 574 0
11 38 -76 -573 -574 0
50 91 -137 575 576 0
50 91 -137 575 -576 0
50 91 -137 -575 576 0
50 91 -137 -575 -576 0
92 96 185 577 578 0
92 96 185 577 -578 0
92 96 185 -577 578 0
92 96 185 -577 -578 0
-1 26 -171 579 580 0
-1 26 -171 579 -580 0
-1 26 -171 -579 580 0
-1 26 -171 -579 -580 0
101 136 152 581 582 0
101 136 152 581 -582 0
101 136 152 -581 582 0
101 136 152 -581 -582 0
-11 -57 -78 583 584 0
-11 -57 -78 583 -584 0
-11 -57 -78 -583 584 0
-11 -57 -78 -583 -584 0
-67 94 114 585 586 0
-67 94 114 585 -586 0
-67 94 114 -585 586 0
-67 94 114 -585 -586 0
-67 -95 114 587 588 0
-67 -95 114 587 -588 0
-67 -95 114 -587 588 0
-67 -95 114 -587 -588 0
-63 182 195 589 590 0
-63 182 195 589 -590 0
-63 182 195 -589 590 0
-63 182 195 -589 -590 0
-34 85 -123 591 592 0
-34 85 -123 591 -592 0
-34 85 -123 -591 592 0
-34 85 -123 -591 -592 0
25 86 147 593 594 0
25 86 147 593 -594 0
25 86 147 -593 594 0
25 86 147 -593 -594 0
67 94 -136 595 596 0
67 94 -136 595 -596 0
67 94 -136 -595 596 0
67 94 -136 -595 -596 0
1 134 156 597 598 0
1 134 156 597 -598 0
1 134 156 -597 598 0
1 134 156 -597 -598 0
50 69 -178 599 600 0
50 69 -178 599 -600 0
50 69 -178 -599 600 0
50 69 -178 -599 -600 0
30 -80 112 601 602 0
30 -80 112 601 -602 0
30 -80 112 -601 602 0
30 -80 112 -601 -602 0
-7 -147 -154 603 604 0
-7 -147 -154 603 -604 0
-7 -147 -154 -603 604 0
-7 -147 -154 -603 -604 0
-40 88 -152 605 606 0
-40 88 -152 605 -606 0
-40 88 -152 -605 606 0
-40 88 -152 -605 -606 0
27 -128 179 607 608 0
27 -128 179 607 -608 0
27 -128 179 -607 608 0
27 -128 179 -607 -608 0
-54 185 -196 609 610 0
-54 185 -196 609 -610 0
-54 185 -196 -609 610 0
-54 185 -196 -609 -610 0
131 153 -176 611 612 0
131 153 -176 611 -612 0
131 153 -176 -611 612 0
131 153 -176 -611 -612 0
-72 -113 -162 613 614 0
-72 -113 -162 613 -614 0
-72 -113 -162 -613 614 0
-72 -113 -162 -613 -614 0
-72 -113 -158 615 616 0
-72 -113 -158 615 -616 0
-72 -113 -158 -615 616 0
-72 -113 -158 -615 -616 0
-101 105 -194 617 618 0
-101 105 -194 617 -618 0
-101 105 -194 -617 618 0
-101 105 -194 -617 -618 0
-17 -53 136 619 620 0
-17 -53 136 619 -620 0
-17 -53 136 -619 620 0
-17 -53 136 -619 -620 0
-56 178 185 621 622 0
-56 178 185 621 -622 0
-56 178 185 -621 622 0
-56 178 185 -621 -622 0
37 45 65 623 624 0
37 45 65 623 -624 0
37 45 65 -623 624 0
37 45 65 -623 -624 0
-72 -147 170 625 626 0
-72 -147 170 625 -626 0
-72 -147 170 -625 626 0
-72 -147 170 -625 -626 0
-5 15 -193 627 628 0
-5 15 -193 627 -628 0
-5 15 -193 -627 628 0
-5 15 -193 -627 -628 0
90 -101 -154 629 630 0
90 -101 -154 629 -630 0
90 -101 -154 -629 630 0
90 -101 -154 -629 -630 0
-24 105 -160 631 632 0
-24 105 -160 631 -632 0
-24 105 -160 -631 632 0
-24 105 -160 -631 -632 0
-23 -76 153 633 634 0
-23 -76 153 633 -634 0
-23 -76 153 -633 634 0
-23 -76 153 -633 -634 0
85 194 -200 635 636 0
85 194 -200 635 -636 0
85 194 -200 -635 636 0
85 194 -200 -635 -636 0
-33 -83 -195 637 638 0
-33 -83 -195 637 -638 0
-33 -83 -195 -637 638 0
-33 -83 -195 -637 -638 0
-46 156 164 639 640 0
-46 156 164 639 -640 0
-46 156 164 -639 640 0
-46 156 164 -639 -640 0
-7 15 108 641 642 0
-7 15 108 641 -642 0
-7 15 108 -641 642 0
-7 15 108 -641 -642 0
7 -40 63 643 644 0
7 -40 63 643 -644 0
7 -40 63 -643 644 0
7 -40 63 -643 -644 0
-49 -89 -191 645 646 0
-49 -89 -191 645 -646 0
-49 -89 -191 -645 646 0
-49 -89 -191 -645 -646 0
52 -135 154 647 648 0
52 -135 154 647 -648 0
52 -135 154 -647 648 0
52 -135 154 -647 -648 0
46 63 -72 649 650 0
46 63 -72 649 -650 0
46 63 -72 -649 650 0
46 63 -72 -649 -650 0
-18 34 103 651 652 0
-18 34 103 651 -652 0
-18 34 103 -651 652 0
-18 34 103 -651 -652 0
21 99 -177 653 654 0
21 99 -177 653 -654 0
21 99 -177 -653 654 0
21 99 -177 -653 -654 0
-127 140 196 655 656 0
-127 140 196 655 -656 0
-127 140 196 -655 656 0
-127 140 196 -655 -656 0
-21 -127 147 657 658 0
-21 -127 147 657 -658 0
-21 -127 147 -657 658 0
-21 -127 147 -657 -658 0
-11 98 -123 659 660 0
-11 98 -123 659 -660 0
-11 98 -123 -659 660 0
-11 98 -123 -659 -660 0
51 64 -129 661 662 0
51 64 -129 661 -662 0
51 64 -129 -661 662 0
51 64 -129 -661 -662 0
-81 -105 -194 663 664 0
-81 -105 -194 663 -664 0
-81 -105 -194 -663 664 0
-81 -105 -194 -663 -664 0
-30 -84 117 665 666 0
-30 -84 117 665 -666 0
-30 -84 117 -665 666 0
-30 -84 117 -665 -666 0
-36 139 186 667 668 0
-36 139 186 667 -668 0
-36 139 186 -667 668 0
-36 139 186 -667 -668 0
18 36 171 669 670 0
18 36 171 669 -670 0
18 36 171 -669 670 0
18 36 171 -669 -670 0
64 -91 -127 671 672 0
64 -91 -127 671 -672 0
64 -91 -127 -671 672 0
64 -91 -127 -671 -672 0
-30 84 148 673 674 0
-30 84 148 673 -674 0
-30 84 148 -673 674 0
-30 84 148 -673 -674 0
-120 -142 -191 675 676 0
-120 -142 -191 675 -676 0
-120 -142 -191 -675 676 0
-120 -142 -191 -675 -676 0
-2 18 146 677 678 0
-2 18 146 677 -678 0
-2 18 146 -677 678 0
-2 18 146 -677 -678 0
-5 70 -199 679 680 0
-5 70 -199 679 -680 0
-5 70 -199 -679 680 0
-5 70 -199 -679 -680 0
41 -63 176 681 682 0
41 -63 176 681 -682 0
41 -63 176 -681 682 0
41 -63 176 -681 -682 0
52 -111 145 683 684 0
52 -111 145 683 -684 0
52 -111 145 -683 684 0
52 -111 145 -683 -684 0
-46 -133 -184 685 686 0
-46 -133 -184 685 -686 0
-46 -133 -184 -685 686 0
-46 -133 -184 -685 -686 0
113 -164 191 687 688 0
113 -164 191 687 -688 0
113 -164 191 -687 688 0
113 -164 191 -687 -688 0
-36 -131 -179 689 690 0
-36 -131 -179 689 -690 0
-36 -131 -179 -689 690 0
-36 -131 -179 -689 -690 0
18 32 182 691 692 0
18 32 182 691 -692 0
18 32 182 -691 692 0
18 32 182 -691 -692 0
-51 61 181 693 694 0
-51 61 181 693 -694 0
-51 61 181 -693 694 0
-51 61 181 -693 -694 0
-15 -73 -156 695 696 0
-15 -73 -156 695 -696 0
-15 -73 -156 -695 696 0
-15 -73 -156 -695 -696 0
47 -131 -197 697 698 0
47 -131 -197 697 -698 0
47 -131 -197 -697 698 0
47 -131 -197 -697 -698 0
-21 82 -89 699 700 0
-21 82 -89 699 -700 0
-21 82 -89 -699 700 0
-21 82 -89 -699 -700 0
-22 -112 142 701 702 0
-22 -112 142 701 -702 0
-22 -112 142 -701 702 0
-22 -112 142 -701 -702 0
77 154 200 703 704 0
77 154 200 703 -704 0
77 154 200 -703 704 0
77 154 200 -703 -704 0
7 133 -168 705 706 0
7 133 -168 705 -706 0
7 133 -168 -705 706 0
7 133 -168 -705 -706 0
-139 150 182 707 708 0
-139 150 182 707 -708 0
-139 150 182 -707 708 0
-139 150 182 -707 -708 0
36 -182 -194 709 710 0
36 -182 -194 709 -710 0
36 -182 -194 -709 710 0
36 -182 -194 -709 -710 0
-26 98 103 711 712 0
-26 98 103 711 -712 0
-26 98 103 -711 712 0
-26 98 103 -711 -712 0
-23 -64 -94 713 714 0
-23 -64 -94 713 -714 0
-23 -64 -94 -713 714 0
-23 -64 -94 -713 -714 0
40 -77 -121 715 716 0
40 -77 -121 715 -716 0
40 -77 -121 -715 716 0
40 -77 -121 -715 -716 0
17 -18 38 717 718 0
17 -18 38 717 -718 0
17 -18 38 -717 718 0
17 -18 38 -717 -718 0
127 166 -184 719 720 0
127 166 -184 719 -720 0
127 166 -184 -719 720 0
127 166 -184 -719 -720 0
121 168 199 721 722 0
121 168 199 721 -722 0
121 168 199 -721 722 0
121 168 199 -721 -722 0
-94 -165 192 723 724 0
-94 -165 192 723 -724 0
-94 -165 192 -723 724 0
-94 -165 192 -723 -724 0
89 -98 148 725 726 0
89 -98 148 725 -726 0
89 -98 148 -725 726 0
89 -98 148 -725 -726 0
-86 -142 -165 727 728 0
-86 -142 -165 727 -728 0
-86 -142 -165 -727 728 0
-86 -142 -165 -727 -728 0
7 -37 196 729 730 0
7 -37 196 729 -730 0
7 -37 196 -729 730 0
7 -37 196 -729 -730 0
-73 -136 181 731 732 0
-73 -136 181 731 -732 0
-73 -136 181 -731 732 0
-73 -136 181 -731 -732 0
17 108 142 733 734 0
17 108 142 733 -734 0
17 108 142 -733 734 0
17 108 142 -733 -734 0
-32 72 -160 735 736 0
-32 72 -160 735 -736 0
-32 72 -160 -735 736 0
-32 72 -160 -735 -736 0
40 -89 -112 737 738 0
40 -89 -112 737 -738 0
40 -89 -112 -737 738 0
40 -89 -112 -737 -738 0
-1 46 -134 739 740 0
-1 46 -134 739 -740 0
-1 46 -134 -739 740 0
-1 46 -134 -739 -740 0
80 164 -170 741 742 0
80 164 -170 741 -742 0
80 164 -170 -741 742 0
80 164 -170 -741 -742 0
37 -170 191 743 744 0
37 -170 191 743 -744 0
37 -170 191 -743 744 0
37 -170 191 -743 -744 0
-153 154 155 745 746 0
-153 154 155 745 -746 0
-153 154 155 -745 746 0
-153 154 155 -745 -746 0
63 -64 -75 747 748 0
63 -64 -75 747 -748 0
63 -64 -75 -747 748 0
63 -64 -75 -747 -748 0
-144 170 197 749 750 0
-144 170 197 749 -750 0
-144 170 197 -749 750 0
-144 170 197 -749 -750 0
10 -134 -137 751 752 0
10 -134 -137 751 -752 0
10 -134 -137 -751 752 0
10 -134 -137 -751 -752 0
-33 -34 176 753 754 0
-33 -34 176 753 -754 0
-33 -34 176 -753 754 0
-33 -34 176 -753 -754 0
-41 133 199 755 756 0
-41 133 199 755 -756 0
-41 133 199 -755 756 0
-41 133 199 -755 -756 0
-81 -98 -128 757 758 0
-81 -98 -128 757 -758 0
-81 -98 -128 -757 758 0
-81 -98 -128 -757 -758 0
-128 -150 176 759 760 0
-128 -150 176 759 -760 0
-128 -150 176 -759 760 0
-128 -150 176 -759 -760 0
-45 -90 170 761 762 0
-45 -90 170 761 -762 0
-45 -90 170 -761 762 0
-45 -90 170 -761 -762 0
4 -24 49 763 764 0
4 -24 49 763 -764 0
4 -24 49 -763 764 0
4 -24 49 -763 -764 0
123 -165 -186 765 766 0
123 -165 -186 765 -766 0
123 -165 -186 -765 766 0
123 -165 -186 -765 -766 0
99 -111 -164 767 768 0
99 -111 -164 767 -768 0
99 -111 -164 -767 768 0
99 -111 -164 -767 -768 0
98 112 -165 769 770 0
98 112 -165 769 -770 0
98 112 -165 -769 770 0
98 112 -165 -769 -770 0
-86 -131 157 771 772 0
-86 -131 157 771 -772 0
-86 -131 157 -771 772 0
-86 -131 157 -771 -772 0
126 150 172 773 774 0
126 150 172 773 -774 0
126 150 172 -773 774 0
126 150 172 -773 -774 0
-10 -75 187 775 776 0
-10 -75 187 775 -776 0
-10 -75 187 -775 776 0
-10 -75 187 -775 -776 0
-15 128 177 777 778 0
-15 128 177 777 -778 0
-15 128 177 -777 778 0
-15 128 177 -777 -778 0
140 148 152 779 780 0
140 148 152 779 -780 0
140 148 152 -779 780 0
140 148 152 -779 -780 0
-18 -23 -132 781 782 0
-18 -23 -132 781 -782 0
-18 -23 -132 -781 782 0
-18 -23 -132 -781 -782 0
111 141 167 783 784 0
111 141 167 783 -784 0
111 141 167 -783 784 0
111 141 167 -783 -784 0
41 -61 98 785 786 0
41 -61 98 785 -786 0
41 -61 98 -785 786 0
41 -61 98 -785 -786 0
86 106 -130 787 788 0
86 106 -130 787 -788 0
86 106 -130 -787 788 0
86 106 -130 -787 -788 0
17 -168 -182 789 790 0
17 -168 -182 789 -790 0
17 -168 -182 -789 790 0
17 -168 -182 -789 -790 0
-33 -41 60 791 792 0
-33 -41 60 791 -792 0
-33 -41 60 -791 792 0
-33 -41 60 -791 -792 0
-102 -105 136 793 794 0
-102 -105 136 793 -794 0
-102 -105 136 -793 794 0
-102 -105 136 -793 -794 0
-37 -98 123 795 796 0
-37 -98 123 795 -796 0
-37 -98 123 -795 796 0
-37 -98 123 -795 -796 0
-52 -62 117 797 798 0
-52 -62 117 797 -798 0
-52 -62 117 -797 798 0
-52 -62 117 -797 -798 0
8 -44 82 799 800 0
8 -44 82 799 -800 0
8 -44 82 -799 800 0
8 -44 82 -799 -800 0
-20 168 199 801 802 0
-20 168 199 801 -802 0
-20 168 199 -801 802 0
-20 168 199 -801 -802 0
30 34 154 803 804 0
30 34 154 803 -804 0
30 34 154 -803 804 0
30 34 154 -803 -804 0
-31 -32 186 805 806 0
-31 -32 186 805 -806 0
-31 -32 186 -805 806 0
-31 -32 186 -805 -806 0
47 90 -105 807 808 0
47 90 -105 807 -808 0
47 90 -105 -807 808 0
47 90 -105 -807 -808 0
-20 -34 101 809 810 0
-20 -34 101 809 -810 0
-20 -34 101 -809 810 0
-20 -34 101 -809 -810 0
167 -181 199 811 812 0
167 -181 199 811 -812 0
167 -181 199 -811 812 0
167 -181 199 -811 -812 0
-2 -133 181 813 814 0
-2 -133 181 813 -814 0
-2 -133 181 -813 814 0
-2 -133 181 -813 -814 0
39 -45 -170 815 816 0
39 -45 -170 815 -816 0
39 -45 -170 -815 816 0
39 -45 -170 -815 -816 0
68 137 157 817 818 0
68 137 157 817 -818 0
68 137 157 -817 818 0
68 137 157 -817 -818 0
-23 -25 -84 819 820 0
-23 -25 -84 819 -820 0
-23 -25 -84 -819 820 0
-23 -25 -84 -819 -820 0
-4 -62 -132 821 822 0
-4 -62 -132 821 -822 0
-4 -62 -132 -821 822 0
-4 -62 -132 -821 -822 0
-53 -80 -198 823 824 0
-53 -80 -198 823 -824 0
-53 -80 -198 -823 824 0
-53 -80 -198 -823 -824 0
4 73 -90 825 826 0
4 73 -90 825 -826 0
4 73 -90 -825 826 0
4 73 -90 -825 -826 0
2 -17 134 827 828 0
2 -17 134 827 -828 0
2 -17 134 -827 828 0
2 -17 134 -827 -828 0
11 -22 26 829 830 0
11 -22 26 829 -830 0
11 -22 26 -829 830 0
11 -22 26 -829 -830 0
30 86 111 831 832 0
30 86 111 831 -832 0
30 86 111 -831 832 0
30 86 111 -831 -832 0
-7 40 126 833 834 0
-7 40 126 833 -834 0
-7 40 126 -833 834 0
-7 40 126 -833 -834 0
-62 101 835 836 837 0
-62 101 835 836 -837 0
-62 101 835 -836 837 0
-62 101 835 -836 -837 0
-62 101 -835 836 837 0
-62 101 -835 836 -837 0
-62 101 -835 -836 837 0
-62 101 -835 -836 -837 0
36 47 187 838 839 0
36 47 187 838 -839 0
36 47 187 -838 839 0
36 47 187 -838 -839 0
-10 84 -92 840 841 0
-10 84 -92 840 -841 0
-10 84 -92 -840 841 0
-10 84 -92 -840 -841 0
